c ind 10 109 111 113 115 117 119 121 123 13 0
c ind 22 24 25 27 29 31 33 35 37 46 0
c ind 49 5 6 60 63 70 73 85 87 89 0
c ind 9 91 93 95 97 99 0
p cnf 176 518
-1 -2 11 0
-1 2 124 0
-100 -101 124 0
-100 101 139 0
-101 102 0
-101 122 0
-102 103 0
-102 120 0
-103 104 0
-103 118 0
-104 105 0
-104 116 0
-105 106 0
-105 114 0
-106 107 0
-106 112 0
-107 108 0
-107 110 0
-108 -109 25 0
-108 -25 109 0
-11 -12 14 0
-11 12 38 0
-110 -111 25 0
-110 -25 111 0
-112 -113 25 0
-112 -25 113 0
-114 -115 25 0
-114 -25 115 0
-116 -117 25 0
-116 -25 117 0
-118 -119 25 0
-118 -25 119 0
-12 -13 9 0
-12 -9 13 0
-120 -121 25 0
-120 -25 121 0
-122 -123 25 0
-122 -25 123 0
-124 125 0
-124 138 0
-125 126 0
-125 137 0
-126 127 0
-126 136 0
-127 128 0
-127 135 0
-128 129 0
-128 134 0
-129 130 0
-129 133 0
-130 131 0
-130 132 0
-131 -109 22 0
-131 -22 109 0
-132 -111 24 0
-132 -24 111 0
-133 -113 27 0
-133 -27 113 0
-134 -115 29 0
-134 -29 115 0
-135 -117 31 0
-135 -31 117 0
-136 -119 33 0
-136 -33 119 0
-137 -121 35 0
-137 -35 121 0
-138 -123 37 0
-138 -37 123 0
-139 140 0
-139 173 0
-14 15 0
-14 36 0
-140 141 0
-140 169 0
-141 142 0
-141 165 0
-142 143 0
-142 161 0
-143 144 0
-143 157 0
-144 145 0
-144 153 0
-145 146 0
-145 149 0
-146 -147 22 0
-146 -22 147 0
-147 -148 -25 0
-147 148 25 0
-148 -109 -13 0
-148 109 13 0
-149 -150 24 0
-149 -24 150 0
-15 16 0
-15 34 0
-150 -151 -152 0
-150 151 152 0
-151 -111 -25 0
-151 111 25 0
-152 109 25 0
-153 -154 27 0
-153 -27 154 0
-154 -155 -156 0
-154 155 156 0
-155 -113 -25 0
-155 113 25 0
-156 111 0
-156 152 0
-157 -158 29 0
-157 -29 158 0
-158 -159 -160 0
-158 159 160 0
-159 -115 -25 0
-159 115 25 0
-16 17 0
-16 32 0
-160 113 0
-160 156 0
-161 -162 31 0
-161 -31 162 0
-162 -163 -164 0
-162 163 164 0
-163 -117 -25 0
-163 117 25 0
-164 115 0
-164 160 0
-165 -166 33 0
-165 -33 166 0
-166 -167 -168 0
-166 167 168 0
-167 -119 -25 0
-167 119 25 0
-168 117 0
-168 164 0
-169 -170 35 0
-169 -35 170 0
-17 18 0
-17 30 0
-170 -171 -172 0
-170 171 172 0
-171 -121 -25 0
-171 121 25 0
-172 119 0
-172 168 0
-173 -174 37 0
-173 -37 174 0
-174 -175 -176 0
-174 175 176 0
-175 -123 -25 0
-175 123 25 0
-176 121 0
-176 172 0
-18 19 0
-18 28 0
-19 20 0
-19 26 0
-2 3 7 0
-20 21 0
-20 23 0
-21 -13 22 0
-21 -22 13 0
-23 -24 25 0
-23 -25 24 0
-25 0
-26 -25 27 0
-26 -27 25 0
-28 -25 29 0
-28 -29 25 0
-3 -4 0
-30 -25 31 0
-30 -31 25 0
-32 -25 33 0
-32 -33 25 0
-34 -25 35 0
-34 -35 25 0
-36 -25 37 0
-36 -37 25 0
-38 -39 41 0
-38 39 124 0
-39 3 0
-39 40 0
-4 -5 6 0
-4 -6 5 0
-40 -13 5 0
-40 -5 13 0
-41 -42 100 0
-41 42 124 0
-42 -43 50 0
-42 43 75 0
-43 44 47 0
-44 -45 0
-45 -46 6 0
-45 -6 46 0
-47 -48 0
-48 -10 49 0
-48 -49 10 0
-50 -51 13 0
-50 51 52 0
-51 -10 13 0
-51 -13 10 0
-52 -53 55 0
-52 53 75 0
-53 44 0
-53 54 0
-54 -13 6 0
-54 -6 13 0
-55 -56 71 0
-55 56 75 0
-56 -57 64 0
-56 57 69 0
-57 58 61 0
-58 -59 0
-59 -46 60 0
-59 -60 46 0
-61 -62 0
-62 -49 63 0
-62 -63 49 0
-64 -65 25 0
-64 65 66 0
-65 -13 49 0
-65 -49 13 0
-66 -67 25 0
-66 67 69 0
-67 58 0
-67 68 0
-68 -13 46 0
-68 -46 13 0
-69 -13 70 0
-69 -70 13 0
-7 -8 0
-71 -72 13 0
-71 72 74 0
-72 -25 73 0
-72 -73 25 0
-74 -75 76 0
-74 75 75 0
-75 -13 73 0
-75 -73 13 0
-76 -77 13 0
-76 77 25 0
-77 78 0
-77 98 0
-78 79 0
-78 96 0
-79 80 0
-79 94 0
-8 -10 9 0
-8 -9 10 0
-80 81 0
-80 92 0
-81 82 0
-81 90 0
-82 83 0
-82 88 0
-83 84 0
-83 86 0
-84 -25 85 0
-84 -85 25 0
-86 -25 87 0
-86 -87 25 0
-88 -25 89 0
-88 -89 25 0
-90 -25 91 0
-90 -91 25 0
-92 -13 93 0
-92 -93 13 0
-94 -25 95 0
-94 -95 25 0
-96 -25 97 0
-96 -97 25 0
-98 -25 99 0
-98 -99 25 0
1 -11 -124 0
1 -2 -11 0
1 0
1 2 -124 0
100 -101 -124 0
100 -124 -139 0
100 101 -139 0
101 -102 -122 0
102 -103 -120 0
103 -104 -118 0
104 -105 -116 0
105 -106 -114 0
106 -107 -112 0
107 -108 -110 0
108 -109 -25 0
108 109 25 0
11 -12 -14 0
11 -14 -38 0
11 12 -38 0
110 -111 -25 0
110 111 25 0
112 -113 -25 0
112 113 25 0
114 -115 -25 0
114 115 25 0
116 -117 -25 0
116 117 25 0
118 -119 -25 0
118 119 25 0
12 -9 -13 0
12 9 13 0
120 -121 -25 0
120 121 25 0
122 -123 -25 0
122 123 25 0
124 -125 -138 0
125 -126 -137 0
126 -127 -136 0
127 -128 -135 0
128 -129 -134 0
129 -130 -133 0
13 0
130 -131 -132 0
131 -22 -109 0
131 22 109 0
132 -24 -111 0
132 24 111 0
133 -27 -113 0
133 27 113 0
134 -29 -115 0
134 29 115 0
135 -31 -117 0
135 31 117 0
136 -33 -119 0
136 33 119 0
137 -35 -121 0
137 35 121 0
138 -37 -123 0
138 37 123 0
139 -140 -173 0
14 -15 -36 0
140 -141 -169 0
141 -142 -165 0
142 -143 -161 0
143 -144 -157 0
144 -145 -153 0
145 -146 -149 0
146 -22 -147 0
146 22 147 0
147 -148 25 0
147 -25 148 0
148 -109 13 0
148 -13 109 0
149 -24 -150 0
149 24 150 0
15 -16 -34 0
150 -151 152 0
150 -152 151 0
151 -111 25 0
151 -25 111 0
152 -109 0
152 -25 0
153 -27 -154 0
153 27 154 0
154 -155 156 0
154 -156 155 0
155 -113 25 0
155 -25 113 0
156 -111 -152 0
157 -29 -158 0
157 29 158 0
158 -159 160 0
158 -160 159 0
159 -115 25 0
159 -25 115 0
16 -17 -32 0
160 -113 -156 0
161 -31 -162 0
161 31 162 0
162 -163 164 0
162 -164 163 0
163 -117 25 0
163 -25 117 0
164 -115 -160 0
165 -33 -166 0
165 33 166 0
166 -167 168 0
166 -168 167 0
167 -119 25 0
167 -25 119 0
168 -117 -164 0
169 -35 -170 0
169 35 170 0
17 -18 -30 0
170 -171 172 0
170 -172 171 0
171 -121 25 0
171 -25 121 0
172 -119 -168 0
173 -37 -174 0
173 37 174 0
174 -175 176 0
174 -176 175 0
175 -123 25 0
175 -25 123 0
176 -121 -172 0
18 -19 -28 0
19 -20 -26 0
2 -3 0
2 -7 0
20 -21 -23 0
21 -22 -13 0
21 22 13 0
23 -24 -25 0
23 24 25 0
26 -27 -25 0
26 27 25 0
28 -29 -25 0
28 29 25 0
3 4 0
30 -31 -25 0
30 31 25 0
32 -33 -25 0
32 33 25 0
34 -35 -25 0
34 35 25 0
36 -37 -25 0
36 37 25 0
38 -39 -41 0
38 -41 -124 0
38 39 -124 0
39 -3 -40 0
4 -5 -6 0
4 5 6 0
40 -5 -13 0
40 5 13 0
41 -100 -124 0
41 -42 -100 0
41 42 -124 0
42 -43 -50 0
42 -50 -75 0
42 43 -75 0
43 -44 0
43 -47 0
44 45 0
45 -6 -46 0
45 6 46 0
47 48 0
48 -10 -49 0
48 10 49 0
50 -13 -52 0
50 -51 -13 0
50 51 -52 0
51 -10 -13 0
51 10 13 0
52 -53 -55 0
52 -55 -75 0
52 53 -75 0
53 -44 -54 0
54 -6 -13 0
54 6 13 0
55 -56 -71 0
55 -71 -75 0
55 56 -75 0
56 -57 -64 0
56 -64 -69 0
56 57 -69 0
57 -58 0
57 -61 0
58 59 0
59 -46 -60 0
59 46 60 0
61 62 0
62 -49 -63 0
62 49 63 0
64 -25 -66 0
64 -65 -25 0
64 65 -66 0
65 -49 -13 0
65 49 13 0
66 -25 -69 0
66 -67 -25 0
66 67 -69 0
67 -58 -68 0
68 -46 -13 0
68 46 13 0
69 -70 -13 0
69 70 13 0
7 8 0
71 -13 -74 0
71 -72 -13 0
71 72 -74 0
72 -73 -25 0
72 73 25 0
74 -75 -76 0
74 -76 -75 0
74 75 -75 0
75 -73 -13 0
75 73 13 0
76 -13 -25 0
76 -77 -13 0
76 77 -25 0
77 -78 -98 0
78 -79 -96 0
79 -80 -94 0
8 -9 -10 0
8 9 10 0
80 -81 -92 0
81 -82 -90 0
82 -83 -88 0
83 -84 -86 0
84 -85 -25 0
84 85 25 0
86 -87 -25 0
86 87 25 0
88 -89 -25 0
88 89 25 0
90 -91 -25 0
90 91 25 0
92 -93 -13 0
92 93 13 0
94 -95 -25 0
94 95 25 0
96 -97 -25 0
96 97 25 0
98 -99 -25 0
98 99 25 0
